DIMACS_lns/graph-1000-421.col
p edge 1000 1838
e 1 262
e 1 315
e 1 711
e 1 305
e 1 444
e 1 881
e 2 941
e 2 577
e 2 121
e 2 78
e 2 419
e 2 416
e 3 909
e 3 561
e 3 675
e 3 748
e 3 426
e 3 528
e 3 396
e 4 236
e 4 511
e 4 368
e 4 521
e 4 296
e 4 955
e 5 74
e 5 312
e 5 701
e 5 131
e 5 293
e 5 534
e 6 649
e 6 347
e 6 39
e 7 20
e 7 708
e 7 422
e 7 237
e 8 870
e 8 188
e 8 79
e 8 60
e 9 824
e 9 772
e 9 409
e 9 515
e 9 472
e 9 531
e 9 218
e 10 252
e 10 987
e 10 811
e 11 298
e 11 454
e 11 173
e 11 107
e 11 196
e 11 197
e 11 407
e 12 128
e 12 492
e 12 34
e 13 693
e 13 900
e 13 909
e 15 676
e 15 906
e 15 778
e 16 299
e 16 164
e 16 177
e 17 79
e 17 468
e 17 135
e 17 532
e 19 698
e 19 781
e 19 422
e 19 394
e 19 690
e 20 765
e 20 215
e 21 180
e 21 87
e 21 501
e 21 758
e 21 418
e 21 762
e 21 386
e 22 875
e 22 961
e 22 122
e 22 248
e 22 213
e 26 606
e 26 611
e 26 728
e 26 31
e 26 93
e 26 386
e 27 740
e 27 909
e 27 720
e 28 147
e 28 942
e 28 635
e 29 106
e 29 925
e 29 587
e 29 441
e 30 329
e 30 118
e 30 593
e 30 291
e 30 895
e 31 723
e 31 108
e 31 78
e 31 481
e 32 122
e 32 451
e 32 152
e 34 261
e 34 643
e 34 891
e 34 600
e 34 53
e 35 278
e 35 429
e 35 477
e 37 363
e 37 357
e 37 564
e 39 446
e 39 201
e 39 505
e 39 520
e 39 376
e 40 615
e 40 156
e 40 178
e 42 170
e 42 765
e 42 304
e 43 743
e 43 761
e 43 574
e 44 696
e 44 445
e 44 215
e 46 246
e 46 198
e 46 585
e 46 130
e 46 895
e 46 275
e 47 926
e 47 88
e 47 136
e 48 805
e 48 727
e 48 395
e 49 985
e 49 718
e 49 489
e 49 650
e 49 817
e 49 144
e 50 534
e 50 922
e 50 690
e 51 402
e 51 177
e 51 110
e 51 87
e 51 811
e 51 456
e 52 475
e 52 200
e 52 797
e 53 628
e 53 422
e 53 832
e 56 258
e 56 394
e 56 508
e 56 555
e 56 529
e 56 765
e 56 344
e 58 831
e 58 203
e 58 550
e 58 534
e 58 84
e 59 325
e 59 767
e 59 457
e 59 728
e 59 939
e 60 298
e 60 360
e 60 684
e 60 112
e 60 100
e 61 472
e 61 663
e 61 973
e 61 125
e 63 523
e 63 711
e 63 197
e 63 676
e 63 372
e 64 740
e 64 358
e 64 924
e 64 486
e 64 474
e 64 280
e 65 933
e 65 801
e 65 252
e 65 97
e 67 924
e 67 343
e 67 273
e 71 744
e 71 524
e 71 247
e 71 526
e 71 359
e 71 318
e 71 266
e 71 490
e 71 970
e 71 506
e 72 811
e 72 650
e 72 677
e 72 791
e 74 155
e 74 447
e 74 929
e 74 971
e 75 425
e 75 232
e 75 692
e 76 281
e 76 240
e 76 419
e 76 254
e 76 736
e 78 278
e 78 873
e 79 363
e 79 635
e 79 877
e 79 682
e 79 751
e 80 175
e 80 426
e 80 525
e 81 615
e 81 470
e 81 145
e 84 964
e 84 126
e 85 118
e 85 732
e 85 405
e 85 994
e 85 163
e 85 533
e 85 368
e 87 966
e 87 833
e 87 689
e 87 171
e 87 363
e 87 876
e 87 91
e 87 222
e 88 168
e 88 153
e 88 687
e 88 925
e 89 841
e 89 855
e 89 383
e 89 927
e 90 413
e 90 208
e 90 468
e 91 451
e 91 384
e 92 490
e 92 134
e 92 436
e 92 444
e 93 844
e 93 427
e 95 869
e 95 759
e 95 874
e 95 800
e 95 149
e 95 428
e 95 425
e 97 586
e 97 578
e 97 101
e 97 895
e 97 859
e 97 140
e 99 998
e 99 487
e 99 765
e 99 439
e 100 723
e 100 163
e 100 574
e 100 631
e 100 754
e 100 381
e 100 836
e 101 484
e 101 220
e 101 816
e 101 251
e 102 445
e 102 751
e 102 387
e 102 965
e 103 206
e 103 516
e 103 379
e 103 259
e 104 822
e 104 573
e 104 505
e 106 118
e 106 639
e 106 247
e 107 910
e 107 179
e 107 479
e 107 543
e 107 726
e 108 953
e 108 539
e 110 232
e 110 522
e 110 174
e 110 358
e 111 713
e 111 373
e 111 951
e 111 170
e 111 696
e 111 396
e 111 770
e 111 643
e 111 877
e 112 281
e 112 346
e 112 854
e 112 394
e 112 254
e 114 929
e 114 424
e 114 397
e 114 253
e 114 896
e 114 815
e 116 978
e 116 947
e 116 624
e 117 357
e 117 632
e 117 609
e 117 552
e 118 463
e 118 573
e 119 574
e 119 430
e 119 325
e 119 210
e 119 238
e 120 708
e 120 705
e 120 354
e 120 761
e 120 670
e 121 611
e 121 809
e 121 417
e 122 543
e 122 727
e 122 843
e 122 822
e 123 549
e 123 789
e 123 144
e 123 685
e 124 768
e 124 510
e 124 532
e 124 901
e 124 393
e 125 325
e 125 282
e 125 925
e 126 944
e 126 629
e 126 204
e 128 982
e 128 658
e 128 964
e 128 600
e 128 135
e 128 578
e 130 842
e 130 495
e 130 575
e 131 858
e 131 343
e 132 780
e 132 976
e 132 745
e 132 259
e 132 691
e 133 871
e 133 296
e 133 691
e 133 152
e 133 138
e 133 870
e 133 286
e 134 173
e 134 361
e 134 148
e 134 906
e 134 224
e 134 473
e 134 186
e 135 419
e 135 259
e 135 499
e 135 799
e 135 460
e 135 253
e 135 367
e 135 792
e 135 566
e 135 373
e 136 676
e 136 809
e 138 255
e 138 487
e 138 459
e 138 968
e 138 514
e 138 841
e 138 966
e 140 767
e 140 721
e 140 905
e 140 329
e 140 163
e 142 881
e 142 539
e 142 869
e 143 238
e 143 349
e 143 144
e 144 329
e 144 916
e 144 469
e 145 915
e 145 489
e 145 688
e 145 570
e 146 458
e 146 992
e 146 910
e 147 868
e 147 516
e 147 693
e 147 539
e 147 721
e 148 498
e 148 571
e 148 523
e 148 286
e 148 737
e 149 310
e 149 340
e 149 281
e 151 347
e 151 666
e 151 477
e 151 429
e 151 516
e 152 253
e 152 795
e 152 427
e 153 809
e 153 320
e 153 602
e 153 498
e 153 441
e 153 976
e 154 498
e 154 468
e 154 367
e 154 655
e 155 858
e 155 406
e 155 463
e 156 873
e 156 895
e 156 375
e 156 442
e 158 892
e 158 558
e 158 921
e 158 997
e 158 741
e 160 667
e 160 434
e 160 873
e 160 453
e 160 173
e 162 390
e 162 758
e 162 413
e 162 215
e 162 409
e 162 830
e 164 523
e 164 654
e 165 794
e 165 793
e 165 418
e 166 418
e 166 953
e 166 745
e 168 779
e 168 866
e 168 918
e 168 492
e 168 782
e 169 774
e 169 514
e 169 782
e 169 212
e 170 251
e 170 849
e 170 714
e 170 327
e 170 888
e 171 874
e 171 293
e 171 515
e 171 681
e 171 658
e 171 200
e 172 613
e 172 646
e 172 868
e 172 649
e 172 687
e 173 750
e 173 578
e 173 436
e 173 177
e 174 630
e 174 564
e 175 710
e 175 808
e 175 796
e 175 875
e 175 651
e 175 495
e 177 577
e 177 694
e 177 691
e 178 496
e 178 728
e 178 237
e 178 306
e 178 405
e 179 462
e 179 361
e 179 771
e 180 690
e 180 688
e 181 280
e 181 904
e 181 957
e 181 846
e 181 208
e 182 221
e 182 295
e 182 716
e 182 772
e 185 787
e 185 606
e 185 875
e 186 287
e 186 787
e 188 362
e 188 583
e 188 218
e 190 431
e 190 598
e 190 211
e 190 549
e 191 266
e 191 831
e 191 963
e 191 926
e 193 499
e 193 228
e 193 995
e 196 398
e 196 674
e 196 295
e 196 540
e 196 203
e 196 298
e 197 307
e 197 720
e 198 410
e 198 584
e 198 939
e 200 454
e 200 329
e 200 975
e 201 384
e 201 604
e 201 414
e 201 349
e 203 973
e 203 641
e 203 981
e 204 749
e 204 896
e 204 783
e 204 598
e 204 1000
e 204 465
e 204 600
e 206 328
e 206 367
e 206 537
e 206 645
e 206 596
e 208 528
e 208 641
e 208 845
e 208 953
e 208 232
e 208 566
e 209 789
e 209 251
e 209 352
e 210 381
e 210 900
e 210 398
e 211 252
e 211 284
e 212 775
e 212 286
e 212 420
e 212 376
e 212 301
e 212 460
e 212 305
e 213 782
e 213 675
e 213 793
e 215 359
e 215 464
e 215 818
e 215 737
e 217 672
e 217 253
e 217 540
e 218 719
e 218 563
e 218 396
e 218 774
e 218 690
e 218 976
e 218 373
e 218 661
e 218 306
e 219 480
e 219 420
e 219 362
e 219 429
e 219 901
e 219 631
e 220 584
e 220 723
e 221 898
e 221 394
e 221 555
e 221 710
e 221 414
e 221 851
e 222 478
e 222 895
e 222 855
e 223 587
e 223 427
e 223 844
e 223 903
e 223 484
e 223 305
e 223 406
e 224 593
e 224 805
e 224 624
e 227 338
e 227 761
e 227 684
e 228 750
e 228 805
e 229 420
e 229 274
e 229 562
e 229 416
e 229 754
e 229 905
e 230 528
e 230 291
e 230 834
e 232 347
e 236 334
e 236 745
e 236 687
e 236 407
e 236 321
e 237 656
e 237 489
e 238 628
e 238 639
e 238 319
e 238 687
e 238 539
e 238 671
e 238 791
e 238 343
e 239 380
e 239 844
e 239 541
e 239 728
e 239 402
e 240 549
e 240 834
e 243 924
e 243 384
e 243 828
e 244 496
e 244 385
e 244 854
e 244 471
e 244 276
e 244 983
e 245 446
e 245 312
e 245 356
e 245 710
e 245 299
e 246 957
e 246 521
e 246 555
e 246 932
e 247 468
e 247 430
e 247 830
e 248 540
e 248 649
e 248 557
e 248 587
e 248 909
e 249 336
e 249 552
e 249 252
e 249 420
e 251 513
e 251 597
e 252 359
e 252 648
e 252 540
e 252 741
e 252 937
e 253 516
e 253 478
e 253 570
e 254 837
e 254 769
e 254 501
e 255 446
e 255 261
e 255 836
e 255 451
e 258 510
e 258 456
e 258 351
e 259 629
e 259 473
e 261 893
e 262 558
e 262 850
e 265 680
e 265 569
e 265 920
e 265 415
e 266 487
e 266 973
e 266 606
e 269 903
e 269 735
e 269 869
e 270 302
e 270 790
e 270 635
e 270 933
e 273 671
e 273 800
e 273 275
e 274 971
e 274 444
e 274 362
e 275 802
e 275 389
e 276 803
e 276 321
e 276 934
e 277 955
e 277 832
e 277 641
e 277 344
e 278 366
e 278 454
e 278 620
e 278 451
e 278 995
e 278 387
e 279 920
e 279 765
e 279 751
e 279 480
e 280 509
e 280 998
e 280 736
e 280 808
e 281 775
e 282 729
e 282 578
e 283 577
e 283 772
e 283 676
e 283 692
e 283 670
e 283 399
e 284 552
e 284 720
e 284 926
e 284 351
e 286 468
e 286 631
e 286 768
e 286 811
e 286 978
e 286 985
e 287 709
e 287 988
e 287 877
e 288 938
e 288 401
e 288 681
e 288 456
e 290 375
e 290 679
e 290 888
e 290 613
e 290 518
e 290 664
e 291 618
e 291 518
e 291 470
e 292 778
e 292 687
e 292 315
e 293 874
e 293 727
e 293 343
e 293 474
e 295 957
e 295 489
e 295 933
e 296 895
e 299 414
e 299 688
e 299 845
e 301 562
e 301 896
e 301 329
e 301 473
e 301 626
e 302 398
e 302 541
e 302 726
e 302 959
e 302 947
e 302 540
e 302 929
e 303 398
e 303 857
e 303 444
e 303 549
e 304 677
e 304 844
e 304 762
e 304 473
e 306 430
e 307 398
e 307 761
e 307 991
e 310 527
e 310 637
e 310 713
e 312 830
e 312 351
e 312 810
e 313 698
e 313 574
e 313 1000
e 313 625
e 313 495
e 314 637
e 314 393
e 314 885
e 314 844
e 315 671
e 315 969
e 316 766
e 316 676
e 316 984
e 318 474
e 318 448
e 318 372
e 318 349
e 318 920
e 319 612
e 319 580
e 319 401
e 319 944
e 319 947
e 320 377
e 320 963
e 320 708
e 321 875
e 322 654
e 322 493
e 322 800
e 325 679
e 325 450
e 325 856
e 325 783
e 325 903
e 327 860
e 327 589
e 327 898
e 327 677
e 328 779
e 328 684
e 328 610
e 328 478
e 328 784
e 329 935
e 329 363
e 329 602
e 329 823
e 329 493
e 334 599
e 334 634
e 334 506
e 334 604
e 334 672
e 334 465
e 334 918
e 335 779
e 335 698
e 335 816
e 335 975
e 336 591
e 336 652
e 337 518
e 337 981
e 337 450
e 338 774
e 338 572
e 338 722
e 338 947
e 339 995
e 339 634
e 339 597
e 339 718
e 339 449
e 339 389
e 339 965
e 340 771
e 340 875
e 340 570
e 343 506
e 343 612
e 343 836
e 344 633
e 344 625
e 344 748
e 344 577
e 344 649
e 344 866
e 346 746
e 346 626
e 346 921
e 347 563
e 351 828
e 351 922
e 351 741
e 351 497
e 351 1000
e 352 854
e 352 500
e 352 546
e 354 809
e 354 799
e 354 769
e 354 867
e 356 562
e 356 589
e 356 457
e 357 752
e 357 662
e 358 973
e 358 564
e 358 737
e 358 363
e 359 873
e 360 597
e 360 618
e 361 533
e 361 498
e 362 591
e 362 766
e 363 488
e 363 752
e 363 738
e 363 473
e 364 830
e 364 997
e 364 488
e 365 431
e 365 903
e 365 993
e 366 815
e 366 518
e 367 763
e 367 393
e 367 709
e 367 524
e 368 377
e 368 481
e 368 510
e 368 395
e 369 677
e 369 821
e 369 434
e 369 553
e 369 827
e 372 881
e 372 543
e 372 394
e 372 988
e 372 808
e 373 980
e 373 763
e 373 483
e 373 558
e 375 993
e 375 477
e 375 741
e 376 387
e 376 473
e 376 722
e 376 462
e 377 426
e 377 794
e 377 390
e 377 881
e 379 422
e 379 426
e 379 939
e 380 859
e 380 414
e 380 681
e 381 602
e 382 409
e 382 566
e 382 460
e 382 660
e 382 666
e 383 793
e 383 643
e 383 389
e 383 469
e 384 837
e 384 887
e 384 701
e 384 675
e 385 509
e 385 713
e 386 571
e 386 835
e 386 778
e 386 493
e 387 976
e 387 828
e 389 425
e 389 457
e 389 458
e 389 451
e 390 800
e 390 698
e 391 820
e 391 749
e 391 523
e 393 632
e 393 534
e 393 899
e 393 772
e 393 443
e 394 784
e 395 903
e 395 978
e 396 481
e 396 901
e 396 610
e 397 486
e 397 407
e 397 521
e 398 472
e 398 832
e 399 572
e 399 410
e 399 840
e 401 656
e 401 976
e 401 997
e 402 572
e 404 545
e 404 652
e 404 625
e 404 529
e 405 685
e 405 538
e 405 475
e 405 784
e 405 998
e 406 573
e 406 490
e 406 998
e 409 682
e 409 645
e 409 758
e 409 807
e 410 727
e 412 872
e 412 982
e 412 741
e 412 797
e 412 785
e 413 572
e 413 875
e 414 840
e 415 991
e 415 938
e 415 716
e 416 927
e 416 612
e 416 581
e 416 676
e 417 959
e 417 563
e 417 637
e 417 846
e 418 790
e 418 722
e 419 791
e 419 658
e 419 847
e 420 840
e 420 677
e 420 625
e 424 971
e 424 620
e 425 896
e 425 934
e 426 964
e 427 909
e 427 465
e 428 609
e 428 1000
e 428 736
e 428 828
e 428 689
e 429 781
e 430 603
e 430 798
e 431 983
e 431 897
e 434 599
e 434 980
e 434 488
e 436 794
e 436 849
e 436 716
e 439 578
e 439 500
e 439 899
e 439 619
e 441 496
e 441 929
e 442 705
e 442 935
e 443 456
e 443 767
e 443 711
e 444 624
e 444 863
e 444 663
e 444 760
e 445 642
e 445 667
e 445 524
e 445 877
e 445 898
e 446 903
e 446 885
e 447 495
e 447 516
e 447 631
e 447 727
e 447 649
e 448 596
e 448 643
e 449 599
e 449 952
e 449 451
e 449 771
e 450 906
e 450 921
e 451 895
e 451 816
e 453 985
e 453 856
e 453 585
e 453 987
e 453 513
e 454 850
e 454 784
e 454 748
e 454 799
e 454 807
e 456 549
e 456 705
e 456 619
e 457 888
e 457 905
e 458 552
e 458 685
e 458 915
e 458 632
e 459 574
e 459 1000
e 460 818
e 460 984
e 460 993
e 462 807
e 462 860
e 463 707
e 463 666
e 464 817
e 464 574
e 464 963
e 464 496
e 464 654
e 465 797
e 465 924
e 465 583
e 466 510
e 466 631
e 466 824
e 468 761
e 468 845
e 468 500
e 469 573
e 470 877
e 470 959
e 470 520
e 471 980
e 471 782
e 472 553
e 472 837
e 472 567
e 472 882
e 473 840
e 473 568
e 473 512
e 473 918
e 473 693
e 473 968
e 474 882
e 474 500
e 475 593
e 478 987
e 478 526
e 479 691
e 479 591
e 480 870
e 483 526
e 483 827
e 484 840
e 484 525
e 484 801
e 484 902
e 484 667
e 486 978
e 486 767
e 486 779
e 487 779
e 487 842
e 488 514
e 488 763
e 489 887
e 489 660
e 490 682
e 490 648
e 492 541
e 493 972
e 493 643
e 495 859
e 495 907
e 495 870
e 496 851
e 497 514
e 497 781
e 497 726
e 498 902
e 498 663
e 499 791
e 499 527
e 500 582
e 500 635
e 500 970
e 500 666
e 501 531
e 504 604
e 504 627
e 504 686
e 504 799
e 505 954
e 505 630
e 506 797
e 506 767
e 506 738
e 508 839
e 508 594
e 508 735
e 509 859
e 509 531
e 510 882
e 511 926
e 511 855
e 511 859
e 512 702
e 512 571
e 513 562
e 514 612
e 515 795
e 516 573
e 516 992
e 516 759
e 517 708
e 517 824
e 517 675
e 520 716
e 520 628
e 520 524
e 521 899
e 521 587
e 521 921
e 522 601
e 522 916
e 523 567
e 524 783
e 525 928
e 527 820
e 528 986
e 528 718
e 529 578
e 529 912
e 531 999
e 531 688
e 531 905
e 532 597
e 532 907
e 532 782
e 532 972
e 532 715
e 533 626
e 533 927
e 533 944
e 534 866
e 537 589
e 537 868
e 538 957
e 538 745
e 538 677
e 539 927
e 539 901
e 539 902
e 540 963
e 541 646
e 541 972
e 541 584
e 541 815
e 545 650
e 545 580
e 545 560
e 546 572
e 546 716
e 549 834
e 549 722
e 549 634
e 550 694
e 550 893
e 550 601
e 550 916
e 552 624
e 552 671
e 553 568
e 553 627
e 553 682
e 555 971
e 555 685
e 557 938
e 557 664
e 557 846
e 558 982
e 558 915
e 558 780
e 558 661
e 560 910
e 560 972
e 560 682
e 561 854
e 561 692
e 561 992
e 561 589
e 561 736
e 562 596
e 562 872
e 562 932
e 562 954
e 564 577
e 564 867
e 564 630
e 566 921
e 566 639
e 566 763
e 567 928
e 567 606
e 567 687
e 568 986
e 569 823
e 569 955
e 570 758
e 570 741
e 570 618
e 570 780
e 571 968
e 571 666
e 571 961
e 572 805
e 572 789
e 573 811
e 575 641
e 575 963
e 577 650
e 577 902
e 578 660
e 578 893
e 580 722
e 581 719
e 581 955
e 581 767
e 581 634
e 582 598
e 582 992
e 582 761
e 583 847
e 584 1000
e 585 664
e 585 787
e 585 818
e 586 680
e 586 656
e 586 991
e 587 846
e 587 971
e 591 678
e 593 601
e 593 728
e 593 994
e 593 808
e 594 798
e 594 930
e 596 981
e 596 938
e 596 655
e 597 976
e 597 678
e 597 882
e 598 938
e 598 960
e 598 969
e 599 899
e 599 707
e 599 997
e 599 902
e 600 604
e 600 652
e 601 944
e 602 722
e 603 850
e 603 763
e 603 774
e 604 896
e 604 986
e 604 970
e 609 749
e 609 672
e 610 684
e 610 976
e 610 772
e 611 652
e 611 985
e 612 940
e 612 841
e 613 891
e 613 872
e 615 849
e 615 808
e 618 824
e 618 687
e 618 966
e 618 986
e 619 969
e 619 959
e 620 895
e 620 645
e 624 715
e 624 790
e 624 787
e 625 971
e 625 810
e 627 784
e 629 750
e 629 868
e 630 907
e 631 775
e 631 843
e 632 903
e 633 918
e 633 748
e 633 746
e 633 787
e 634 785
e 635 824
e 635 715
e 635 797
e 637 809
e 639 668
e 642 684
e 642 934
e 643 949
e 645 982
e 646 678
e 646 892
e 646 658
e 646 866
e 646 860
e 648 718
e 649 903
e 649 934
e 649 924
e 650 987
e 650 802
e 651 688
e 651 941
e 652 947
e 652 875
e 654 975
e 655 870
e 656 988
e 658 909
e 658 876
e 658 822
e 658 993
e 661 679
e 661 671
e 661 805
e 662 860
e 662 759
e 663 870
e 663 737
e 664 874
e 666 729
e 666 930
e 666 969
e 666 718
e 666 676
e 666 835
e 668 991
e 668 896
e 669 983
e 669 882
e 669 822
e 669 772
e 670 781
e 670 971
e 671 679
e 671 718
e 672 687
e 672 986
e 674 685
e 674 874
e 675 708
e 676 951
e 676 942
e 677 839
e 677 971
e 677 685
e 678 760
e 680 839
e 681 746
e 681 801
e 682 998
e 684 957
e 686 960
e 686 789
e 688 991
e 688 882
e 688 820
e 689 802
e 691 897
e 691 751
e 691 811
e 692 792
e 692 744
e 692 876
e 694 963
e 694 791
e 696 821
e 696 748
e 698 909
e 701 965
e 702 869
e 702 984
e 705 708
e 705 828
e 707 999
e 708 810
e 709 736
e 710 811
e 714 926
e 714 924
e 715 726
e 718 719
e 719 729
e 720 801
e 721 842
e 721 860
e 722 841
e 722 903
e 723 856
e 726 867
e 727 846
e 729 932
e 732 792
e 732 937
e 735 818
e 735 930
e 737 900
e 738 870
e 738 881
e 740 937
e 741 944
e 743 975
e 743 775
e 744 774
e 745 929
e 746 803
e 749 882
e 752 818
e 754 821
e 754 891
e 754 849
e 754 910
e 758 976
e 758 999
e 760 770
e 760 995
e 760 835
e 761 793
e 761 855
e 762 789
e 763 833
e 765 916
e 765 836
e 765 986
e 765 849
e 766 844
e 767 920
e 767 856
e 767 803
e 767 820
e 767 952
e 767 947
e 768 926
e 768 834
e 768 784
e 769 912
e 770 892
e 770 995
e 771 863
e 774 867
e 774 976
e 780 854
e 781 934
e 781 993
e 782 927
e 783 999
e 785 817
e 790 844
e 791 831
e 793 833
e 794 872
e 794 965
e 795 903
e 796 915
e 796 975
e 797 904
e 797 881
e 798 978
e 798 837
e 799 823
e 800 867
e 802 811
e 805 866
e 805 875
e 807 819
e 808 987
e 810 920
e 817 925
e 819 976
e 819 987
e 821 920
e 821 941
e 824 896
e 827 991
e 832 850
e 832 885
e 839 871
e 839 868
e 841 982
e 843 870
e 843 959
e 844 968
e 847 928
e 847 850
e 847 961
e 850 859
e 851 940
e 856 859
e 857 1000
e 857 929
e 857 953
e 858 966
e 859 928
e 863 893
e 867 929
e 868 885
e 868 904
e 869 964
e 870 935
e 871 963
e 872 944
e 873 978
e 873 960
e 885 969
e 887 978
e 891 964
e 897 994
e 897 980
e 900 933
e 903 928
e 904 981
e 905 951
e 909 964
e 912 955
e 916 982
e 922 949
e 922 935
e 925 1000
e 930 995
e 940 984
e 942 952
e 947 954
e 949 964
e 968 993
